500
    1    24    24
    2    47    47
    3    21    21
    4    33    33
    5    11    11
    6    25    25
    7     8     8
    8     9     9
    9    35    35
   10    14    14
   11    42    42
   12    48    48
   13    10    10
   14    34    34
   15    20    20
   16     4     4
   17    34    34
   18    45    45
   19    39    39
   20    43    43
   21     6     6
   22    50    50
   23    16    16
   24    32    32
   25    19    19
   26    12    12
   27    39    39
   28    35    35
   29    33    33
   30    36    36
   31    27    27
   32     9     9
   33    46    46
   34    35    35
   35    11    11
   36    49    49
   37    28    28
   38    27    27
   39    33    33
   40    16    16
   41    26    26
   42     4     4
   43     4     4
   44    30    30
   45    29    29
   46    27    27
   47    39    39
   48    29    29
   49     7     7
   50    20    20
   51    27    27
   52     3     3
   53    33    33
   54     7     7
   55    26    26
   56    20    20
   57    24    24
   58    23    23
   59    12    12
   60    27    27
   61    46    46
   62    40    40
   63    20    20
   64    25    25
   65    32    32
   66    39    39
   67    16    16
   68     6     6
   69    45    45
   70    30    30
   71    10    10
   72     4     4
   73    23    23
   74    46    46
   75    35    35
   76    44    44
   77    23    23
   78     1     1
   79    17    17
   80    26    26
   81     8     8
   82    17    17
   83    38    38
   84    18    18
   85    39    39
   86     2     2
   87    20    20
   88    14    14
   89    48    48
   90    39    39
   91    45    45
   92    46    46
   93    26    26
   94     9     9
   95    26    26
   96    17    17
   97    38    38
   98     9     9
   99    13    13
  100    30    30
  101    25    25
  102    44    44
  103     1     1
  104    33    33
  105    12    12
  106    14    14
  107    35    35
  108    18    18
  109    49    49
  110    19    19
  111    22    22
  112    45    45
  113    26    26
  114    37    37
  115    39    39
  116    11    11
  117    17    17
  118    15    15
  119    23    23
  120    12    12
  121    27    27
  122    47    47
  123    33    33
  124    45    45
  125    12    12
  126    44    44
  127    11    11
  128    42    42
  129    44    44
  130    29    29
  131     5     5
  132    20    20
  133     9     9
  134    40    40
  135    41    41
  136    16    16
  137    19    19
  138    11    11
  139    40    40
  140    26    26
  141    20    20
  142    22    22
  143    22    22
  144    30    30
  145     5     5
  146     2     2
  147    22    22
  148    40    40
  149    28    28
  150    27    27
  151    21    21
  152     3     3
  153    37    37
  154    19    19
  155    30    30
  156    44    44
  157    39    39
  158    17    17
  159     1     1
  160    44    44
  161    22    22
  162    14    14
  163    30    30
  164    49    49
  165    11    11
  166    28    28
  167    14    14
  168    47    47
  169    14    14
  170    16    16
  171     8     8
  172    29    29
  173     6     6
  174    39    39
  175    35    35
  176    48    48
  177    19    19
  178    15    15
  179    40    40
  180     9     9
  181    29    29
  182    37    37
  183    41    41
  184     2     2
  185    21    21
  186    36    36
  187    44    44
  188    41    41
  189     9     9
  190    45    45
  191    18    18
  192    29    29
  193    44    44
  194    16    16
  195    25    25
  196    37    37
  197    29    29
  198    39    39
  199    17    17
  200     5     5
  201    16    16
  202    41    41
  203    21    21
  204     8     8
  205    27    27
  206    43    43
  207    13    13
  208    34    34
  209    34    34
  210    10    10
  211    19    19
  212    20    20
  213    46    46
  214    39    39
  215     3     3
  216    47    47
  217     5     5
  218    35    35
  219    44    44
  220    33    33
  221    39    39
  222    30    30
  223     6     6
  224    15    15
  225    30    30
  226    50    50
  227    48    48
  228     4     4
  229    46    46
  230    29    29
  231    19    19
  232    46    46
  233    28    28
  234    28    28
  235    36    36
  236    26    26
  237    30    30
  238    17    17
  239    45    45
  240    22    22
  241    44    44
  242    32    32
  243    25    25
  244    45    45
  245    32    32
  246    47    47
  247    43    43
  248     4     4
  249     4     4
  250    50    50
  251    39    39
  252     3     3
  253    48    48
  254     7     7
  255    28    28
  256    37    37
  257     7     7
  258    38    38
  259    34    34
  260    19    19
  261    50    50
  262    49    49
  263    22    22
  264    42    42
  265    37    37
  266    39    39
  267    19    19
  268     1     1
  269     5     5
  270    10    10
  271    47    47
  272    12    12
  273    38    38
  274    21    21
  275     3     3
  276    22    22
  277    44    44
  278    36    36
  279    11    11
  280    44    44
  281    30    30
  282    29    29
  283    31    31
  284    25    25
  285    34    34
  286     8     8
  287    36    36
  288    42    42
  289    14    14
  290     9     9
  291    39    39
  292    15    15
  293    11    11
  294    48    48
  295     4     4
  296    32    32
  297    49    49
  298    47    47
  299    13    13
  300    41    41
  301    38    38
  302    43    43
  303    15    15
  304     7     7
  305    30    30
  306    50    50
  307    41    41
  308    30    30
  309    24    24
  310    21    21
  311    33    33
  312    31    31
  313    35    35
  314    32    32
  315    46    46
  316    30    30
  317    20    20
  318    28    28
  319    36    36
  320    28    28
  321    44    44
  322     7     7
  323    11    11
  324    24    24
  325    47    47
  326     5     5
  327    18    18
  328     8     8
  329    34    34
  330    23    23
  331    35    35
  332    22    22
  333    39    39
  334    18    18
  335    12    12
  336     7     7
  337    46    46
  338    21    21
  339    26    26
  340    46    46
  341    11    11
  342    13    13
  343    32    32
  344    11    11
  345    33    33
  346    27    27
  347    14    14
  348    45    45
  349    31    31
  350    16    16
  351    35    35
  352    17    17
  353    35    35
  354    44    44
  355    22    22
  356    39    39
  357     9     9
  358    31    31
  359    34    34
  360    17    17
  361    36    36
  362    10    10
  363    25    25
  364     6     6
  365    33    33
  366    16    16
  367    29    29
  368    42    42
  369     1     1
  370    50    50
  371    50    50
  372     8     8
  373    17    17
  374    50    50
  375    16    16
  376    25    25
  377     6     6
  378    48    48
  379    24    24
  380    44    44
  381    35    35
  382     9     9
  383    39    39
  384     2     2
  385    47    47
  386    22    22
  387     3     3
  388    37    37
  389    24    24
  390    35    35
  391    20    20
  392     2     2
  393    22    22
  394    49    49
  395     8     8
  396     7     7
  397     9     9
  398    11    11
  399    26    26
  400    33    33
  401    39    39
  402    13    13
  403     3     3
  404    30    30
  405    19    19
  406    21    21
  407    37    37
  408    35    35
  409     1     1
  410    45    45
  411    33    33
  412     9     9
  413    19    19
  414     4     4
  415    18    18
  416    44    44
  417    22    22
  418     9     9
  419    48    48
  420    40    40
  421    39    39
  422    10    10
  423    18    18
  424    50    50
  425    41    41
  426    10    10
  427    11    11
  428     6     6
  429    26    26
  430     6     6
  431    36    36
  432     1     1
  433    23    23
  434    44    44
  435    50    50
  436    40    40
  437    26    26
  438     6     6
  439    17    17
  440    12    12
  441    40    40
  442    30    30
  443    15    15
  444    23    23
  445    30    30
  446     2     2
  447    38    38
  448     7     7
  449    46    46
  450     5     5
  451    46    46
  452    38    38
  453    14    14
  454    31    31
  455    26    26
  456    28    28
  457     2     2
  458    39    39
  459     7     7
  460    11    11
  461    48    48
  462     1     1
  463    13    13
  464    24    24
  465    25    25
  466    29    29
  467    19    19
  468    50    50
  469     4     4
  470     6     6
  471    20    20
  472    19    19
  473     4     4
  474    31    31
  475    20    20
  476     7     7
  477     5     5
  478    10    10
  479    49    49
  480    49    49
  481    42    42
  482    42    42
  483    38    38
  484    34    34
  485    30    30
  486    21    21
  487    12    12
  488    45    45
  489    33    33
  490    38    38
  491    41    41
  492    43    43
  493    14    14
  494    23    23
  495    40    40
  496    16    16
  497    21    21
  498     6     6
  499     9     9
  500    34    34
6512
